WARNING: for repeatability, setting FPU to use double precision
 -----------------------------------------------------------------------------------------------------------------------
|                                 manysat2.0    4 thread(s) on 8 core(s)                                                |
 -----------------------------------------------------------------------------------------------------------------------
 ===============================================[ Problem Statistics ]==================================================
|                                                                                                                       |
|  Number of cores:                 4                                                                                   |
|  Number of variables:         13408                                                                                   |
|  Number of clauses:          308391                                                                                   |
|  Parse time:                   0.31 s                                                                                 |
|                                                                                                                       |
 ==============================================[ Search Statistics ]====================================================
|   Thread  | Conflicts |          ORIGINAL         |          LEARNT          |  exported  / imported      |  Progress |
|    (id)   |           |    Vars  Clauses Literals |    Limit  Clauses Lit/Cl |  (clauses by restart)      |           |
 =======================================================================================================================
|         0 |       100 |   13015   308218  1771274 |   113013       98      5 |           0  -           0 |  2.931 %  |
|         0 |       250 |   13015   308218  1771274 |   124314      248      6 |           0  -           0 |  2.931 %  |
|         0 |       475 |   13015   308218  1771274 |   136746      543      6 |        1170  -          70 |  2.931 %  |
|         3 |       100 |   13015   308218  1771274 |   113076      700      6 |        1173  -         601 |  2.931 %  |
|         1 |       100 |   13015   308218  1771274 |   113076      940      6 |        1173  -         838 |  2.931 %  |
|         2 |       100 |   13015   308218  1771274 |   113076     1091      6 |        1173  -         992 |  2.931 %  |
|         1 |       250 |   13015   308218  1771274 |   124384     1369      6 |        1173  -        1116 |  2.931 %  |
|         3 |       250 |   13015   308218  1771274 |   124384     1440      6 |        1173  -        1190 |  2.931 %  |
|         0 |       812 |   13015   308218  1771274 |   150420     1627      6 |        1170  -         817 |  2.931 %  |
|         2 |       250 |   13015   308218  1771274 |   124384     1782      6 |        1173  -        1533 |  2.931 %  |
|         1 |       475 |   13015   308218  1771274 |   136822     2030      6 |        1173  -        1551 |  2.931 %  |
|         3 |       475 |   13015   308218  1771274 |   136822     2451      6 |        1177  -        1976 |  2.931 %  |
|         1 |       812 |   13014   308218  1771274 |   150505     2887      6 |        1173  -        2072 |  2.939 %  |
|         2 |       475 |   13015   308218  1771274 |   136822     2917      6 |        1177  -        2443 |  2.931 %  |
|         0 |      1318 |   13015   308218  1771274 |   165462     3556      6 |        1174  -        2240 |  2.931 %  |
|         3 |       812 |   13014   308218  1771274 |   150505     4064      6 |        1177  -        3252 |  2.939 %  |
|         1 |      1318 |   13014   308218  1771274 |   165555     4308      6 |        1173  -        2987 |  2.939 %  |
|         2 |       812 |   13014   308218  1771274 |   150505     4525      6 |        1177  -        3714 |  2.939 %  |
|         3 |      1318 |   13014   308218  1771274 |   165555     6312      6 |        1177  -        4994 |  2.939 %  |
|         1 |      2077 |   13014   308218  1771274 |   182111     6456      6 |        1173  -        4376 |  2.939 %  |
|         0 |      2077 |   13014   308218  1771274 |   182008     6464      6 |        1174  -        4389 |  2.939 %  |
|         2 |      1318 |   13014   308218  1771274 |   165555     6904      6 |        1177  -        5587 |  2.939 %  |
|         3 |      2077 |   13012   308218  1771274 |   182111     9589      6 |        1178  -        7512 |  2.953 %  |
|         1 |      3216 |   13013   308218  1771274 |   200322     9830      6 |        1178  -        6612 |  2.946 %  |
|         0 |      3216 |   13014   308218  1771274 |   200209    10257      6 |        1180  -        7043 |  2.939 %  |
|         2 |      2077 |   13014   308218  1771274 |   182111    10358      6 |        1183  -        8282 |  2.939 %  |
|         1 |      4924 |   13012   308218  1771274 |   220354    14689      6 |        1182  -        9763 |  2.953 %  |
|         3 |      3216 |   13012   308218  1771274 |   200322    15032      6 |        1182  -       11815 |  2.953 %  |
|         2 |      3216 |   13012   308218  1771274 |   200322    15383      6 |        1187  -       12168 |  2.953 %  |
|         0 |      4924 |   13010   308218  1771274 |   220230    15773      6 |        1180  -       10851 |  2.968 %  |
|         1 |      7486 |   13010   308218  1771274 |   242389    21475      7 |        1182  -       13987 |  2.968 %  |
|         3 |      4924 |   13010   308218  1771274 |   220354    22357      6 |        1182  -       17432 |  2.968 %  |
|         2 |      4924 |   13010   308218  1771274 |   220354    22782      6 |        1187  -       17859 |  2.968 %  |
|         0 |      7486 |   13010   308218  1771274 |   242253    23476      6 |        1180  -       15992 |  2.968 %  |
|         1 |     11330 |   13010   308218  1771274 |   266628    30634      7 |        1182  -       19302 |  2.968 %  |
|         0 |     11330 |   13010   308218  1771274 |   266479    32051      7 |        1180  -       20723 |  2.968 %  |
|         2 |      7486 |   13010   308218  1771274 |   242389    33685      7 |        1187  -       26200 |  2.968 %  |
|         3 |      7486 |   13010   308218  1771274 |   242389    33846      7 |        1182  -       26359 |  2.968 %  |
|         0 |     17096 |   13009   308218  1771274 |   293127    43374      8 |        1180  -       26281 |  2.976 %  |
|         1 |     17096 |   13010   308218  1771274 |   293291    44523      9 |        1184  -       27425 |  2.968 %  |
|         2 |     11330 |   13010   308218  1771274 |   266628    45505      8 |        1189  -       34176 |  2.968 %  |
|         3 |     11330 |   13010   308218  1771274 |   266628    48084      8 |        1184  -       36753 |  2.968 %  |
|         0 |     25745 |   13009   308218  1771274 |   322440    61422      9 |        1180  -       35680 |  2.976 %  |
|         1 |     25745 |   13009   308218  1771274 |   322621    64075     10 |        1184  -       38328 |  2.976 %  |
|         2 |     17096 |   13009   308218  1771274 |   293291    62225      9 |        1189  -       45130 |  2.976 %  |
|         3 |     17096 |   13009   308218  1771274 |   293291    67046      8 |        1184  -       49949 |  2.976 %  |
|         2 |     25745 |   13009   308218  1771274 |   322621    84102     10 |        1189  -       58358 |  2.976 %  |
|         1 |     38719 |   13009   308110  1770720 |   354883    91880     11 |        1184  -       53160 |  2.976 %  |
|         0 |     38719 |   13009   308110  1770720 |   354684    92252     10 |        1180  -       53537 |  2.976 %  |
|         3 |     25745 |   13009   308218  1771274 |   322621    91278      9 |        1184  -       65532 |  2.976 %  |
|         2 |     38719 |   13008   308110  1770720 |   354883   113393     11 |        1189  -       74677 |  2.983 %  |
|         0 |     58180 |   13009   308110  1770720 |   390152   129129     12 |        1190  -       70953 |  2.976 %  |
|         3 |     38719 |   13009   308110  1770720 |   354883   120781     11 |        1194  -       82062 |  2.976 %  |
|         1 |     58180 |   13009   308110  1770720 |   390371   134494     12 |        1194  -       76313 |  2.976 %  |
|         2 |     58180 |   13008   308110  1770720 |   390371   158625     12 |        1191  -      100448 |  2.983 %  |
|         3 |     58180 |   13008   308110  1770720 |   390371   155538     12 |        1196  -       97358 |  2.983 %  |
|         0 |     87372 |   13007   308090  1770635 |   429167   190501     13 |        1196  -      103134 |  2.991 %  |
|         1 |     87372 |   13007   308074  1770575 |   429408   201532     13 |        1196  -      114160 |  2.991 %  |
|         3 |     87372 |   13007   308074  1770575 |   429408   215723     14 |        1205  -      128351 |  2.991 %  |
|         2 |     87372 |   13006   308060  1770518 |   429408   221741     14 |        1198  -      134373 |  2.998 %  |
|         0 |    131161 |   13005   308041  1770445 |   472084   264493     16 |        1199  -      133342 |  3.006 %  |
|         3 |    131161 |   13006   308074  1770575 |   472349   290788     16 |        1208  -      159627 |  2.998 %  |
|         1 |    131161 |   13005   308074  1770575 |   472349   300336     14 |        1201  -      169176 |  3.006 %  |
|         2 |    131161 |   13005   308060  1770518 |   472349   323418     14 |        1200  -      192262 |  3.006 %  |
|         1 |    196845 |   13003   308041  1770445 |   519584   418224     18 |        1203  -      221384 |  3.021 %  |
|         0 |    196845 |   13002   308014  1770349 |   519292   404142     18 |        1202  -      207312 |  3.028 %  |
|         3 |    196845 |   13005   308041  1770445 |   519584   414169     19 |        1213  -      217327 |  3.006 %  |
|         2 |    196845 |   13005   308060  1770518 |   519584   444800     16 |        1207  -      247960 |  3.006 %  |
|         1 |    295371 |   13001   308041  1770445 |   571542   140367     17 |        1224  -      318344 |  3.036 %  |
|         0 |    295371 |   12999   308014  1770349 |   571222   137912     15 |        1223  -      315039 |  3.050 %  |
|         2 |    295371 |   13000   307981  1770226 |   571542   146023     20 |        1222  -      337376 |  3.043 %  |
|         3 |    295371 |   12999   307996  1770282 |   571542   176388     13 |        1221  -      356286 |  3.050 %  |
|         2 |    443160 |   12999   307981  1770226 |   628697   400118     23 |        1222  -      443682 |  3.050 %  |
|         1 |    443160 |   12999   307944  1770087 |   628697   400928     20 |        1224  -      431121 |  3.050 %  |
|         0 |    443160 |   12999   307944  1770087 |   628344   414209     19 |        1223  -      443551 |  3.050 %  |
|         3 |    443160 |   12999   307944  1770087 |   628697   438620     24 |        1221  -      470733 |  3.050 %  |
|         2 |    664843 |   12999   307944  1770087 |   691566   159478     22 |        1222  -      586061 |  3.050 %  |
|         1 |    664843 |   12999   307944  1770087 |   691566   199837     26 |        1224  -      600872 |  3.050 %  |
|         3 |    664843 |   12999   307944  1770087 |   691566   287374     30 |        1221  -      667028 |  3.050 %  |
|         0 |    664843 |   12999   307944  1770087 |   691178   307784     24 |        1223  -      671091 |  3.050 %  |
|         2 |    997368 |   12999   307944  1770087 |   760723    75626     38 |        1222  -      833317 |  3.050 %  |
|         0 |    997368 |   12999   307944  1770087 |   760296   193569     27 |        1223  -      888457 |  3.050 %  |
|         1 |    997368 |   12999   307944  1770087 |   760723   232460     27 |        1224  -      922188 |  3.050 %  |
|         3 |    997368 |   12999   307944  1770087 |   760723   236529     20 |        1221  -      932427 |  3.050 %  |
|         0 |   1496156 |   12999   307944  1770087 |   836326   202179     38 |        1223  -     1128285 |  3.050 %  |
|         1 |   1496156 |   12999   307944  1770087 |   836795   230491     36 |        1224  -     1159424 |  3.050 %  |
|         3 |   1496156 |   12999   307944  1770087 |   836795   249525     32 |        1221  -     1176505 |  3.050 %  |
|         2 |   1496156 |   12999   307944  1770087 |   836795   281476     44 |        1222  -     1243853 |  3.050 %  |
|         1 |   2244338 |   12999   307944  1770087 |   920475   379637     54 |        1224  -     1380818 |  3.050 %  |
|         0 |   2244338 |   12999   307944  1770087 |   919959   537790     99 |        1223  -     1493828 |  3.050 %  |
|         3 |   2244338 |   12999   307944  1770087 |   920475   626096    100 |        1221  -     1601813 |  3.050 %  |
